142 140 152 84 155 40 143 92 188 23 72 27 129 32 94 160 81 50 165 16 51 80 103 130 97 64 117 74 56 158 89 17 69 134 200 146 193 104 135 78 6 28 83 110 180 67 154 173 88 123 13 60 42 172 47 3 
91 100 197 149 43 15 68 183 49 20 113 187 125 189 99 22 44 196 53 12 79 171 127 191 179 148 195 157 66 106 70 18 124 162 10 46 141 34 147 131 153 93 26 5 
39 37 54 174 199 128 85 108 168 177 176 45 114 52 112 86 166 101 144 71 137 194 107 55 161 126 36 90 116 120 8 118 1 76 2 185 138 159 19 150 29 9 33 119 151 65 139 182 102 175 122 164 181 
4 163 156 48 169 24 63 35 190 136 25 77 21 198 192 41 145 178 115 11 82 96 30 75 
57 133 31 167 7 132 98 38 111 186 95 87 121 73 
14 62 170 184 109 58 
59 61 105 

